1 51 2
-996 -331 -830 -208 -428 -471 -850 -512 -954 -448 -489 -849 -730 -741 -625 -638 -579 -892 -566 -505 -130 -818 -933 -236 -829 -101 -777 -667 -806 -671 -272 -71 -605 -837 -851 -641 -325 -329 -341 -853 -86 -30 -862 -857 -107 -145 -253 -820 -910 -523 0 
-952 -190 -580 -171 -337 -96 -408 -254 -513 -613 -669 -294 -696 -510 -189 -486 -961 -679 -521 -65 -252 -828 -169 -377 -248 -811 -341 -413 -478 -257 -642 -888 -380 -808 -648 -865 -978 -267 -727 -628 -191 -893 -508 -802 -587 -395 -981 -144 -397 -521 0 
855 934 678 504 410 314 212 702 544 732 357 856 125 786 26 795 780 961 219 77 121 692 746 902 22 982 970 264 610 902 37 401 627 792 818 852 345 112 496 570 656 187 795 587 287 721 211 615 570 779 1 
13768 
